# Objective value = 6
x0,1_4 0
x0,1_11 1
x0,1_13 0
x0,1_20 0
x0,1_24 0
x0,1_28 0
x0,1_33 0
x0,1_35 0
x0,1_37 0
x0,1_39 0
x0,1_48 0
x0,1_59 0
x0,1_61 0
x0,1_72 0
x0,2_4 0
x0,2_11 0
x0,2_13 0
x0,2_20 0
x0,2_24 0
x0,2_28 0
x0,2_33 0
x0,2_35 1
x0,2_37 0
x0,2_39 0
x0,2_48 0
x0,2_59 0
x0,2_61 0
x0,2_72 0
x0,3_4 0
x0,3_11 0
x0,3_13 0
x0,3_20 0
x0,3_24 0
x0,3_28 0
x0,3_33 0
x0,3_35 0
x0,3_37 0
x0,3_39 1
x0,3_48 0
x0,3_59 0
x0,3_61 0
x0,3_72 0
x0,4_4 0
x0,4_11 0
x0,4_13 0
x0,4_20 0
x0,4_24 0
x0,4_28 0
x0,4_33 0
x0,4_35 0
x0,4_37 0
x0,4_39 0
x0,4_48 0
x0,4_59 1
x0,4_61 0
x0,4_72 0
x0,5_4 0
x0,5_11 0
x0,5_13 0
x0,5_20 0
x0,5_24 0
x0,5_28 0
x0,5_33 0
x0,5_35 0
x0,5_37 0
x0,5_39 0
x0,5_48 0
x0,5_59 0
x0,5_61 0
x0,5_72 1
x0,6_4 0
x0,6_11 0
x0,6_13 0
x0,6_20 0
x0,6_24 0
x0,6_28 0
x0,6_33 0
x0,6_35 0
x0,6_37 0
x0,6_39 0
x0,6_48 0
x0,6_59 0
x0,6_61 0
x0,6_72 0
x0,7_4 0
x0,7_11 0
x0,7_13 0
x0,7_20 0
x0,7_24 0
x0,7_28 0
x0,7_33 0
x0,7_35 0
x0,7_37 0
x0,7_39 0
x0,7_48 0
x0,7_59 0
x0,7_61 0
x0,7_72 0
x0,8_4 0
x0,8_11 0
x0,8_13 0
x0,8_20 0
x0,8_24 0
x0,8_28 0
x0,8_33 0
x0,8_35 0
x0,8_37 0
x0,8_39 0
x0,8_48 0
x0,8_59 0
x0,8_61 0
x0,8_72 0
x0,9_4 0
x0,9_11 0
x0,9_13 0
x0,9_20 0
x0,9_24 0
x0,9_28 0
x0,9_33 0
x0,9_35 0
x0,9_37 0
x0,9_39 0
x0,9_48 0
x0,9_59 0
x0,9_61 0
x0,9_72 0
x0,10_4 0
x0,10_11 0
x0,10_13 0
x0,10_20 0
x0,10_24 0
x0,10_28 0
x0,10_33 0
x0,10_35 0
x0,10_37 0
x0,10_39 0
x0,10_48 0
x0,10_59 0
x0,10_61 0
x0,10_72 0
x0,11_4 0
x0,11_11 0
x0,11_13 0
x0,11_20 0
x0,11_24 0
x0,11_28 0
x0,11_33 0
x0,11_35 0
x0,11_37 0
x0,11_39 0
x0,11_48 0
x0,11_59 0
x0,11_61 0
x0,11_72 0
x0,12_4 0
x0,12_11 0
x0,12_13 0
x0,12_20 0
x0,12_24 0
x0,12_28 0
x0,12_33 0
x0,12_35 0
x0,12_37 0
x0,12_39 0
x0,12_48 0
x0,12_59 0
x0,12_61 0
x0,12_72 0
x0,13_4 0
x0,13_11 0
x0,13_13 0
x0,13_20 0
x0,13_24 0
x0,13_28 0
x0,13_33 0
x0,13_35 0
x0,13_37 0
x0,13_39 0
x0,13_48 0
x0,13_59 0
x0,13_61 0
x0,13_72 0
x0,14_4 0
x0,14_11 0
x0,14_13 0
x0,14_20 0
x0,14_24 0
x0,14_28 0
x0,14_33 0
x0,14_35 0
x0,14_37 0
x0,14_39 0
x0,14_48 0
x0,14_59 0
x0,14_61 0
x0,14_72 0
x0,15_4 0
x0,15_11 0
x0,15_13 0
x0,15_20 0
x0,15_24 0
x0,15_28 0
x0,15_33 0
x0,15_35 0
x0,15_37 0
x0,15_39 0
x0,15_48 0
x0,15_59 0
x0,15_61 0
x0,15_72 0
x1,2_4 0
x1,2_11 0
x1,2_13 0
x1,2_20 0
x1,2_24 1
x1,2_28 0
x1,2_33 0
x1,2_35 0
x1,2_37 0
x1,2_39 0
x1,2_48 0
x1,2_59 0
x1,2_61 0
x1,2_72 0
x1,3_4 0
x1,3_11 0
x1,3_13 0
x1,3_20 0
x1,3_24 0
x1,3_28 1
x1,3_33 0
x1,3_35 0
x1,3_37 0
x1,3_39 0
x1,3_48 0
x1,3_59 0
x1,3_61 0
x1,3_72 0
x1,4_4 0
x1,4_11 0
x1,4_13 0
x1,4_20 0
x1,4_24 0
x1,4_28 0
x1,4_33 0
x1,4_35 0
x1,4_37 0
x1,4_39 0
x1,4_48 1
x1,4_59 0
x1,4_61 0
x1,4_72 0
x1,5_4 0
x1,5_11 0
x1,5_13 0
x1,5_20 0
x1,5_24 0
x1,5_28 0
x1,5_33 0
x1,5_35 0
x1,5_37 0
x1,5_39 0
x1,5_48 0
x1,5_59 0
x1,5_61 1
x1,5_72 0
x1,6_4 0
x1,6_11 0
x1,6_13 0
x1,6_20 0
x1,6_24 0
x1,6_28 0
x1,6_33 0
x1,6_35 0
x1,6_37 0
x1,6_39 0
x1,6_48 0
x1,6_59 0
x1,6_61 0
x1,6_72 0
x1,7_4 0
x1,7_11 0
x1,7_13 0
x1,7_20 0
x1,7_24 0
x1,7_28 0
x1,7_33 0
x1,7_35 0
x1,7_37 0
x1,7_39 0
x1,7_48 0
x1,7_59 0
x1,7_61 0
x1,7_72 0
x1,8_4 0
x1,8_11 0
x1,8_13 0
x1,8_20 0
x1,8_24 0
x1,8_28 0
x1,8_33 0
x1,8_35 0
x1,8_37 0
x1,8_39 0
x1,8_48 0
x1,8_59 0
x1,8_61 0
x1,8_72 0
x1,9_4 0
x1,9_11 0
x1,9_13 0
x1,9_20 0
x1,9_24 0
x1,9_28 0
x1,9_33 0
x1,9_35 0
x1,9_37 0
x1,9_39 0
x1,9_48 0
x1,9_59 0
x1,9_61 0
x1,9_72 0
x1,10_4 0
x1,10_11 0
x1,10_13 0
x1,10_20 0
x1,10_24 0
x1,10_28 0
x1,10_33 0
x1,10_35 0
x1,10_37 0
x1,10_39 0
x1,10_48 0
x1,10_59 0
x1,10_61 0
x1,10_72 0
x1,11_4 0
x1,11_11 0
x1,11_13 0
x1,11_20 0
x1,11_24 0
x1,11_28 0
x1,11_33 0
x1,11_35 0
x1,11_37 0
x1,11_39 0
x1,11_48 0
x1,11_59 0
x1,11_61 0
x1,11_72 0
x1,12_4 0
x1,12_11 0
x1,12_13 0
x1,12_20 0
x1,12_24 0
x1,12_28 0
x1,12_33 0
x1,12_35 0
x1,12_37 0
x1,12_39 0
x1,12_48 0
x1,12_59 0
x1,12_61 0
x1,12_72 0
x1,13_4 0
x1,13_11 0
x1,13_13 0
x1,13_20 0
x1,13_24 0
x1,13_28 0
x1,13_33 0
x1,13_35 0
x1,13_37 0
x1,13_39 0
x1,13_48 0
x1,13_59 0
x1,13_61 0
x1,13_72 0
x1,14_4 0
x1,14_11 0
x1,14_13 0
x1,14_20 0
x1,14_24 0
x1,14_28 0
x1,14_33 0
x1,14_35 0
x1,14_37 0
x1,14_39 0
x1,14_48 0
x1,14_59 0
x1,14_61 0
x1,14_72 0
x1,15_4 0
x1,15_11 0
x1,15_13 0
x1,15_20 0
x1,15_24 0
x1,15_28 0
x1,15_33 0
x1,15_35 0
x1,15_37 0
x1,15_39 0
x1,15_48 0
x1,15_59 0
x1,15_61 0
x1,15_72 0
x2,3_4 1
x2,3_11 0
x2,3_13 0
x2,3_20 0
x2,3_24 0
x2,3_28 0
x2,3_33 0
x2,3_35 0
x2,3_37 0
x2,3_39 0
x2,3_48 0
x2,3_59 0
x2,3_61 0
x2,3_72 0
x2,4_4 0
x2,4_11 0
x2,4_13 0
x2,4_20 0
x2,4_24 1
x2,4_28 0
x2,4_33 0
x2,4_35 0
x2,4_37 0
x2,4_39 0
x2,4_48 0
x2,4_59 0
x2,4_61 0
x2,4_72 0
x2,5_4 0
x2,5_11 0
x2,5_13 0
x2,5_20 0
x2,5_24 0
x2,5_28 0
x2,5_33 0
x2,5_35 0
x2,5_37 1
x2,5_39 0
x2,5_48 0
x2,5_59 0
x2,5_61 0
x2,5_72 0
x2,6_4 0
x2,6_11 0
x2,6_13 0
x2,6_20 0
x2,6_24 0
x2,6_28 0
x2,6_33 0
x2,6_35 0
x2,6_37 0
x2,6_39 0
x2,6_48 0
x2,6_59 0
x2,6_61 0
x2,6_72 0
x2,7_4 0
x2,7_11 0
x2,7_13 0
x2,7_20 0
x2,7_24 0
x2,7_28 0
x2,7_33 0
x2,7_35 0
x2,7_37 0
x2,7_39 0
x2,7_48 0
x2,7_59 0
x2,7_61 0
x2,7_72 0
x2,8_4 0
x2,8_11 0
x2,8_13 0
x2,8_20 0
x2,8_24 0
x2,8_28 0
x2,8_33 0
x2,8_35 0
x2,8_37 0
x2,8_39 0
x2,8_48 0
x2,8_59 0
x2,8_61 0
x2,8_72 0
x2,9_4 0
x2,9_11 0
x2,9_13 0
x2,9_20 0
x2,9_24 0
x2,9_28 0
x2,9_33 0
x2,9_35 0
x2,9_37 0
x2,9_39 0
x2,9_48 0
x2,9_59 0
x2,9_61 0
x2,9_72 0
x2,10_4 0
x2,10_11 0
x2,10_13 0
x2,10_20 0
x2,10_24 0
x2,10_28 0
x2,10_33 0
x2,10_35 0
x2,10_37 0
x2,10_39 0
x2,10_48 0
x2,10_59 0
x2,10_61 0
x2,10_72 0
x2,11_4 0
x2,11_11 0
x2,11_13 0
x2,11_20 0
x2,11_24 0
x2,11_28 0
x2,11_33 0
x2,11_35 0
x2,11_37 0
x2,11_39 0
x2,11_48 0
x2,11_59 0
x2,11_61 0
x2,11_72 0
x2,12_4 0
x2,12_11 0
x2,12_13 0
x2,12_20 0
x2,12_24 0
x2,12_28 0
x2,12_33 0
x2,12_35 0
x2,12_37 0
x2,12_39 0
x2,12_48 0
x2,12_59 0
x2,12_61 0
x2,12_72 0
x2,13_4 0
x2,13_11 0
x2,13_13 0
x2,13_20 0
x2,13_24 0
x2,13_28 0
x2,13_33 0
x2,13_35 0
x2,13_37 0
x2,13_39 0
x2,13_48 0
x2,13_59 0
x2,13_61 0
x2,13_72 0
x2,14_4 0
x2,14_11 0
x2,14_13 0
x2,14_20 0
x2,14_24 0
x2,14_28 0
x2,14_33 0
x2,14_35 0
x2,14_37 0
x2,14_39 0
x2,14_48 0
x2,14_59 0
x2,14_61 0
x2,14_72 0
x2,15_4 0
x2,15_11 0
x2,15_13 0
x2,15_20 0
x2,15_24 0
x2,15_28 0
x2,15_33 0
x2,15_35 0
x2,15_37 0
x2,15_39 0
x2,15_48 0
x2,15_59 0
x2,15_61 0
x2,15_72 0
x3,4_4 0
x3,4_11 0
x3,4_13 0
x3,4_20 1
x3,4_24 0
x3,4_28 0
x3,4_33 0
x3,4_35 0
x3,4_37 0
x3,4_39 0
x3,4_48 0
x3,4_59 0
x3,4_61 0
x3,4_72 0
x3,5_4 0
x3,5_11 0
x3,5_13 0
x3,5_20 0
x3,5_24 0
x3,5_28 0
x3,5_33 1
x3,5_35 0
x3,5_37 0
x3,5_39 0
x3,5_48 0
x3,5_59 0
x3,5_61 0
x3,5_72 0
x3,6_4 0
x3,6_11 0
x3,6_13 0
x3,6_20 0
x3,6_24 0
x3,6_28 0
x3,6_33 0
x3,6_35 0
x3,6_37 0
x3,6_39 0
x3,6_48 0
x3,6_59 0
x3,6_61 0
x3,6_72 0
x3,7_4 0
x3,7_11 0
x3,7_13 0
x3,7_20 0
x3,7_24 0
x3,7_28 0
x3,7_33 0
x3,7_35 0
x3,7_37 0
x3,7_39 0
x3,7_48 0
x3,7_59 0
x3,7_61 0
x3,7_72 0
x3,8_4 0
x3,8_11 0
x3,8_13 0
x3,8_20 0
x3,8_24 0
x3,8_28 0
x3,8_33 0
x3,8_35 0
x3,8_37 0
x3,8_39 0
x3,8_48 0
x3,8_59 0
x3,8_61 0
x3,8_72 0
x3,9_4 0
x3,9_11 0
x3,9_13 0
x3,9_20 0
x3,9_24 0
x3,9_28 0
x3,9_33 0
x3,9_35 0
x3,9_37 0
x3,9_39 0
x3,9_48 0
x3,9_59 0
x3,9_61 0
x3,9_72 0
x3,10_4 0
x3,10_11 0
x3,10_13 0
x3,10_20 0
x3,10_24 0
x3,10_28 0
x3,10_33 0
x3,10_35 0
x3,10_37 0
x3,10_39 0
x3,10_48 0
x3,10_59 0
x3,10_61 0
x3,10_72 0
x3,11_4 0
x3,11_11 0
x3,11_13 0
x3,11_20 0
x3,11_24 0
x3,11_28 0
x3,11_33 0
x3,11_35 0
x3,11_37 0
x3,11_39 0
x3,11_48 0
x3,11_59 0
x3,11_61 0
x3,11_72 0
x3,12_4 0
x3,12_11 0
x3,12_13 0
x3,12_20 0
x3,12_24 0
x3,12_28 0
x3,12_33 0
x3,12_35 0
x3,12_37 0
x3,12_39 0
x3,12_48 0
x3,12_59 0
x3,12_61 0
x3,12_72 0
x3,13_4 0
x3,13_11 0
x3,13_13 0
x3,13_20 0
x3,13_24 0
x3,13_28 0
x3,13_33 0
x3,13_35 0
x3,13_37 0
x3,13_39 0
x3,13_48 0
x3,13_59 0
x3,13_61 0
x3,13_72 0
x3,14_4 0
x3,14_11 0
x3,14_13 0
x3,14_20 0
x3,14_24 0
x3,14_28 0
x3,14_33 0
x3,14_35 0
x3,14_37 0
x3,14_39 0
x3,14_48 0
x3,14_59 0
x3,14_61 0
x3,14_72 0
x3,15_4 0
x3,15_11 0
x3,15_13 0
x3,15_20 0
x3,15_24 0
x3,15_28 0
x3,15_33 0
x3,15_35 0
x3,15_37 0
x3,15_39 0
x3,15_48 0
x3,15_59 0
x3,15_61 0
x3,15_72 0
x4,5_4 0
x4,5_11 0
x4,5_13 1
x4,5_20 0
x4,5_24 0
x4,5_28 0
x4,5_33 0
x4,5_35 0
x4,5_37 0
x4,5_39 0
x4,5_48 0
x4,5_59 0
x4,5_61 0
x4,5_72 0
x4,6_4 0
x4,6_11 0
x4,6_13 0
x4,6_20 0
x4,6_24 0
x4,6_28 0
x4,6_33 0
x4,6_35 0
x4,6_37 0
x4,6_39 0
x4,6_48 0
x4,6_59 0
x4,6_61 0
x4,6_72 0
x4,7_4 0
x4,7_11 0
x4,7_13 0
x4,7_20 0
x4,7_24 0
x4,7_28 0
x4,7_33 0
x4,7_35 0
x4,7_37 0
x4,7_39 0
x4,7_48 0
x4,7_59 0
x4,7_61 0
x4,7_72 0
x4,8_4 0
x4,8_11 0
x4,8_13 0
x4,8_20 0
x4,8_24 0
x4,8_28 0
x4,8_33 0
x4,8_35 0
x4,8_37 0
x4,8_39 0
x4,8_48 0
x4,8_59 0
x4,8_61 0
x4,8_72 0
x4,9_4 0
x4,9_11 0
x4,9_13 0
x4,9_20 0
x4,9_24 0
x4,9_28 0
x4,9_33 0
x4,9_35 0
x4,9_37 0
x4,9_39 0
x4,9_48 0
x4,9_59 0
x4,9_61 0
x4,9_72 0
x4,10_4 0
x4,10_11 0
x4,10_13 0
x4,10_20 0
x4,10_24 0
x4,10_28 0
x4,10_33 0
x4,10_35 0
x4,10_37 0
x4,10_39 0
x4,10_48 0
x4,10_59 0
x4,10_61 0
x4,10_72 0
x4,11_4 0
x4,11_11 0
x4,11_13 0
x4,11_20 0
x4,11_24 0
x4,11_28 0
x4,11_33 0
x4,11_35 0
x4,11_37 0
x4,11_39 0
x4,11_48 0
x4,11_59 0
x4,11_61 0
x4,11_72 0
x4,12_4 0
x4,12_11 0
x4,12_13 0
x4,12_20 0
x4,12_24 0
x4,12_28 0
x4,12_33 0
x4,12_35 0
x4,12_37 0
x4,12_39 0
x4,12_48 0
x4,12_59 0
x4,12_61 0
x4,12_72 0
x4,13_4 0
x4,13_11 0
x4,13_13 0
x4,13_20 0
x4,13_24 0
x4,13_28 0
x4,13_33 0
x4,13_35 0
x4,13_37 0
x4,13_39 0
x4,13_48 0
x4,13_59 0
x4,13_61 0
x4,13_72 0
x4,14_4 0
x4,14_11 0
x4,14_13 0
x4,14_20 0
x4,14_24 0
x4,14_28 0
x4,14_33 0
x4,14_35 0
x4,14_37 0
x4,14_39 0
x4,14_48 0
x4,14_59 0
x4,14_61 0
x4,14_72 0
x4,15_4 0
x4,15_11 0
x4,15_13 0
x4,15_20 0
x4,15_24 0
x4,15_28 0
x4,15_33 0
x4,15_35 0
x4,15_37 0
x4,15_39 0
x4,15_48 0
x4,15_59 0
x4,15_61 0
x4,15_72 0
x5,6_4 0
x5,6_11 0
x5,6_13 0
x5,6_20 0
x5,6_24 0
x5,6_28 0
x5,6_33 0
x5,6_35 0
x5,6_37 0
x5,6_39 0
x5,6_48 0
x5,6_59 0
x5,6_61 0
x5,6_72 0
x5,7_4 0
x5,7_11 0
x5,7_13 0
x5,7_20 0
x5,7_24 0
x5,7_28 0
x5,7_33 0
x5,7_35 0
x5,7_37 0
x5,7_39 0
x5,7_48 0
x5,7_59 0
x5,7_61 0
x5,7_72 0
x5,8_4 0
x5,8_11 0
x5,8_13 0
x5,8_20 0
x5,8_24 0
x5,8_28 0
x5,8_33 0
x5,8_35 0
x5,8_37 0
x5,8_39 0
x5,8_48 0
x5,8_59 0
x5,8_61 0
x5,8_72 0
x5,9_4 0
x5,9_11 0
x5,9_13 0
x5,9_20 0
x5,9_24 0
x5,9_28 0
x5,9_33 0
x5,9_35 0
x5,9_37 0
x5,9_39 0
x5,9_48 0
x5,9_59 0
x5,9_61 0
x5,9_72 0
x5,10_4 0
x5,10_11 0
x5,10_13 0
x5,10_20 0
x5,10_24 0
x5,10_28 0
x5,10_33 0
x5,10_35 0
x5,10_37 0
x5,10_39 0
x5,10_48 0
x5,10_59 0
x5,10_61 0
x5,10_72 0
x5,11_4 0
x5,11_11 0
x5,11_13 0
x5,11_20 0
x5,11_24 0
x5,11_28 0
x5,11_33 0
x5,11_35 0
x5,11_37 0
x5,11_39 0
x5,11_48 0
x5,11_59 0
x5,11_61 0
x5,11_72 0
x5,12_4 0
x5,12_11 0
x5,12_13 0
x5,12_20 0
x5,12_24 0
x5,12_28 0
x5,12_33 0
x5,12_35 0
x5,12_37 0
x5,12_39 0
x5,12_48 0
x5,12_59 0
x5,12_61 0
x5,12_72 0
x5,13_4 0
x5,13_11 0
x5,13_13 0
x5,13_20 0
x5,13_24 0
x5,13_28 0
x5,13_33 0
x5,13_35 0
x5,13_37 0
x5,13_39 0
x5,13_48 0
x5,13_59 0
x5,13_61 0
x5,13_72 0
x5,14_4 0
x5,14_11 0
x5,14_13 0
x5,14_20 0
x5,14_24 0
x5,14_28 0
x5,14_33 0
x5,14_35 0
x5,14_37 0
x5,14_39 0
x5,14_48 0
x5,14_59 0
x5,14_61 0
x5,14_72 0
x5,15_4 0
x5,15_11 0
x5,15_13 0
x5,15_20 0
x5,15_24 0
x5,15_28 0
x5,15_33 0
x5,15_35 0
x5,15_37 0
x5,15_39 0
x5,15_48 0
x5,15_59 0
x5,15_61 0
x5,15_72 0
x6,7_4 0
x6,7_11 0
x6,7_13 0
x6,7_20 0
x6,7_24 0
x6,7_28 0
x6,7_33 0
x6,7_35 0
x6,7_37 0
x6,7_39 0
x6,7_48 0
x6,7_59 0
x6,7_61 0
x6,7_72 0
x6,8_4 0
x6,8_11 0
x6,8_13 0
x6,8_20 0
x6,8_24 0
x6,8_28 0
x6,8_33 0
x6,8_35 0
x6,8_37 0
x6,8_39 0
x6,8_48 0
x6,8_59 0
x6,8_61 0
x6,8_72 0
x6,9_4 0
x6,9_11 0
x6,9_13 0
x6,9_20 0
x6,9_24 0
x6,9_28 0
x6,9_33 0
x6,9_35 0
x6,9_37 0
x6,9_39 0
x6,9_48 0
x6,9_59 0
x6,9_61 0
x6,9_72 0
x6,10_4 0
x6,10_11 0
x6,10_13 0
x6,10_20 0
x6,10_24 0
x6,10_28 0
x6,10_33 0
x6,10_35 0
x6,10_37 0
x6,10_39 0
x6,10_48 0
x6,10_59 0
x6,10_61 0
x6,10_72 0
x6,11_4 0
x6,11_11 0
x6,11_13 0
x6,11_20 0
x6,11_24 0
x6,11_28 0
x6,11_33 0
x6,11_35 0
x6,11_37 0
x6,11_39 0
x6,11_48 0
x6,11_59 0
x6,11_61 0
x6,11_72 0
x6,12_4 0
x6,12_11 0
x6,12_13 0
x6,12_20 0
x6,12_24 0
x6,12_28 0
x6,12_33 0
x6,12_35 0
x6,12_37 0
x6,12_39 0
x6,12_48 0
x6,12_59 0
x6,12_61 0
x6,12_72 0
x6,13_4 0
x6,13_11 0
x6,13_13 0
x6,13_20 0
x6,13_24 0
x6,13_28 0
x6,13_33 0
x6,13_35 0
x6,13_37 0
x6,13_39 0
x6,13_48 0
x6,13_59 0
x6,13_61 0
x6,13_72 0
x6,14_4 0
x6,14_11 0
x6,14_13 0
x6,14_20 0
x6,14_24 0
x6,14_28 0
x6,14_33 0
x6,14_35 0
x6,14_37 0
x6,14_39 0
x6,14_48 0
x6,14_59 0
x6,14_61 0
x6,14_72 0
x6,15_4 0
x6,15_11 0
x6,15_13 0
x6,15_20 0
x6,15_24 0
x6,15_28 0
x6,15_33 0
x6,15_35 0
x6,15_37 0
x6,15_39 0
x6,15_48 0
x6,15_59 0
x6,15_61 0
x6,15_72 0
x7,8_4 0
x7,8_11 0
x7,8_13 0
x7,8_20 0
x7,8_24 0
x7,8_28 0
x7,8_33 0
x7,8_35 0
x7,8_37 0
x7,8_39 0
x7,8_48 0
x7,8_59 0
x7,8_61 0
x7,8_72 0
x7,9_4 0
x7,9_11 0
x7,9_13 0
x7,9_20 0
x7,9_24 0
x7,9_28 0
x7,9_33 0
x7,9_35 0
x7,9_37 0
x7,9_39 0
x7,9_48 0
x7,9_59 0
x7,9_61 0
x7,9_72 0
x7,10_4 0
x7,10_11 0
x7,10_13 0
x7,10_20 0
x7,10_24 0
x7,10_28 0
x7,10_33 0
x7,10_35 0
x7,10_37 0
x7,10_39 0
x7,10_48 0
x7,10_59 0
x7,10_61 0
x7,10_72 0
x7,11_4 0
x7,11_11 0
x7,11_13 0
x7,11_20 0
x7,11_24 0
x7,11_28 0
x7,11_33 0
x7,11_35 0
x7,11_37 0
x7,11_39 0
x7,11_48 0
x7,11_59 0
x7,11_61 0
x7,11_72 0
x7,12_4 0
x7,12_11 0
x7,12_13 0
x7,12_20 0
x7,12_24 0
x7,12_28 0
x7,12_33 0
x7,12_35 0
x7,12_37 0
x7,12_39 0
x7,12_48 0
x7,12_59 0
x7,12_61 0
x7,12_72 0
x7,13_4 0
x7,13_11 0
x7,13_13 0
x7,13_20 0
x7,13_24 0
x7,13_28 0
x7,13_33 0
x7,13_35 0
x7,13_37 0
x7,13_39 0
x7,13_48 0
x7,13_59 0
x7,13_61 0
x7,13_72 0
x7,14_4 0
x7,14_11 0
x7,14_13 0
x7,14_20 0
x7,14_24 0
x7,14_28 0
x7,14_33 0
x7,14_35 0
x7,14_37 0
x7,14_39 0
x7,14_48 0
x7,14_59 0
x7,14_61 0
x7,14_72 0
x7,15_4 0
x7,15_11 0
x7,15_13 0
x7,15_20 0
x7,15_24 0
x7,15_28 0
x7,15_33 0
x7,15_35 0
x7,15_37 0
x7,15_39 0
x7,15_48 0
x7,15_59 0
x7,15_61 0
x7,15_72 0
x8,9_4 0
x8,9_11 0
x8,9_13 0
x8,9_20 0
x8,9_24 0
x8,9_28 0
x8,9_33 0
x8,9_35 0
x8,9_37 0
x8,9_39 0
x8,9_48 0
x8,9_59 0
x8,9_61 0
x8,9_72 0
x8,10_4 0
x8,10_11 0
x8,10_13 0
x8,10_20 0
x8,10_24 0
x8,10_28 0
x8,10_33 0
x8,10_35 0
x8,10_37 0
x8,10_39 0
x8,10_48 0
x8,10_59 0
x8,10_61 0
x8,10_72 0
x8,11_4 0
x8,11_11 0
x8,11_13 0
x8,11_20 0
x8,11_24 0
x8,11_28 0
x8,11_33 0
x8,11_35 0
x8,11_37 0
x8,11_39 0
x8,11_48 0
x8,11_59 0
x8,11_61 0
x8,11_72 0
x8,12_4 0
x8,12_11 0
x8,12_13 0
x8,12_20 0
x8,12_24 0
x8,12_28 0
x8,12_33 0
x8,12_35 0
x8,12_37 0
x8,12_39 0
x8,12_48 0
x8,12_59 0
x8,12_61 0
x8,12_72 0
x8,13_4 0
x8,13_11 0
x8,13_13 0
x8,13_20 0
x8,13_24 0
x8,13_28 0
x8,13_33 0
x8,13_35 0
x8,13_37 0
x8,13_39 0
x8,13_48 0
x8,13_59 0
x8,13_61 0
x8,13_72 0
x8,14_4 0
x8,14_11 0
x8,14_13 0
x8,14_20 0
x8,14_24 0
x8,14_28 0
x8,14_33 0
x8,14_35 0
x8,14_37 0
x8,14_39 0
x8,14_48 0
x8,14_59 0
x8,14_61 0
x8,14_72 0
x8,15_4 0
x8,15_11 0
x8,15_13 0
x8,15_20 0
x8,15_24 0
x8,15_28 0
x8,15_33 0
x8,15_35 0
x8,15_37 0
x8,15_39 0
x8,15_48 0
x8,15_59 0
x8,15_61 0
x8,15_72 0
x9,10_4 0
x9,10_11 0
x9,10_13 0
x9,10_20 0
x9,10_24 0
x9,10_28 0
x9,10_33 0
x9,10_35 0
x9,10_37 0
x9,10_39 0
x9,10_48 0
x9,10_59 0
x9,10_61 0
x9,10_72 0
x9,11_4 0
x9,11_11 0
x9,11_13 0
x9,11_20 0
x9,11_24 0
x9,11_28 0
x9,11_33 0
x9,11_35 0
x9,11_37 0
x9,11_39 0
x9,11_48 0
x9,11_59 0
x9,11_61 0
x9,11_72 0
x9,12_4 0
x9,12_11 0
x9,12_13 0
x9,12_20 0
x9,12_24 0
x9,12_28 0
x9,12_33 0
x9,12_35 0
x9,12_37 0
x9,12_39 0
x9,12_48 0
x9,12_59 0
x9,12_61 0
x9,12_72 0
x9,13_4 0
x9,13_11 0
x9,13_13 0
x9,13_20 0
x9,13_24 0
x9,13_28 0
x9,13_33 0
x9,13_35 0
x9,13_37 0
x9,13_39 0
x9,13_48 0
x9,13_59 0
x9,13_61 0
x9,13_72 0
x9,14_4 0
x9,14_11 0
x9,14_13 0
x9,14_20 0
x9,14_24 0
x9,14_28 0
x9,14_33 0
x9,14_35 0
x9,14_37 0
x9,14_39 0
x9,14_48 0
x9,14_59 0
x9,14_61 0
x9,14_72 0
x9,15_4 0
x9,15_11 0
x9,15_13 0
x9,15_20 0
x9,15_24 0
x9,15_28 0
x9,15_33 0
x9,15_35 0
x9,15_37 0
x9,15_39 0
x9,15_48 0
x9,15_59 0
x9,15_61 0
x9,15_72 0
x10,11_4 0
x10,11_11 0
x10,11_13 0
x10,11_20 0
x10,11_24 0
x10,11_28 0
x10,11_33 0
x10,11_35 0
x10,11_37 0
x10,11_39 0
x10,11_48 0
x10,11_59 0
x10,11_61 0
x10,11_72 0
x10,12_4 0
x10,12_11 0
x10,12_13 0
x10,12_20 0
x10,12_24 0
x10,12_28 0
x10,12_33 0
x10,12_35 0
x10,12_37 0
x10,12_39 0
x10,12_48 0
x10,12_59 0
x10,12_61 0
x10,12_72 0
x10,13_4 0
x10,13_11 0
x10,13_13 0
x10,13_20 0
x10,13_24 0
x10,13_28 0
x10,13_33 0
x10,13_35 0
x10,13_37 0
x10,13_39 0
x10,13_48 0
x10,13_59 0
x10,13_61 0
x10,13_72 0
x10,14_4 0
x10,14_11 0
x10,14_13 0
x10,14_20 0
x10,14_24 0
x10,14_28 0
x10,14_33 0
x10,14_35 0
x10,14_37 0
x10,14_39 0
x10,14_48 0
x10,14_59 0
x10,14_61 0
x10,14_72 0
x10,15_4 0
x10,15_11 0
x10,15_13 0
x10,15_20 0
x10,15_24 0
x10,15_28 0
x10,15_33 0
x10,15_35 0
x10,15_37 0
x10,15_39 0
x10,15_48 0
x10,15_59 0
x10,15_61 0
x10,15_72 0
x11,12_4 0
x11,12_11 0
x11,12_13 0
x11,12_20 0
x11,12_24 0
x11,12_28 0
x11,12_33 0
x11,12_35 0
x11,12_37 0
x11,12_39 0
x11,12_48 0
x11,12_59 0
x11,12_61 0
x11,12_72 0
x11,13_4 0
x11,13_11 0
x11,13_13 0
x11,13_20 0
x11,13_24 0
x11,13_28 0
x11,13_33 0
x11,13_35 0
x11,13_37 0
x11,13_39 0
x11,13_48 0
x11,13_59 0
x11,13_61 0
x11,13_72 0
x11,14_4 0
x11,14_11 0
x11,14_13 0
x11,14_20 0
x11,14_24 0
x11,14_28 0
x11,14_33 0
x11,14_35 0
x11,14_37 0
x11,14_39 0
x11,14_48 0
x11,14_59 0
x11,14_61 0
x11,14_72 0
x11,15_4 0
x11,15_11 0
x11,15_13 0
x11,15_20 0
x11,15_24 0
x11,15_28 0
x11,15_33 0
x11,15_35 0
x11,15_37 0
x11,15_39 0
x11,15_48 0
x11,15_59 0
x11,15_61 0
x11,15_72 0
x12,13_4 0
x12,13_11 0
x12,13_13 0
x12,13_20 0
x12,13_24 0
x12,13_28 0
x12,13_33 0
x12,13_35 0
x12,13_37 0
x12,13_39 0
x12,13_48 0
x12,13_59 0
x12,13_61 0
x12,13_72 0
x12,14_4 0
x12,14_11 0
x12,14_13 0
x12,14_20 0
x12,14_24 0
x12,14_28 0
x12,14_33 0
x12,14_35 0
x12,14_37 0
x12,14_39 0
x12,14_48 0
x12,14_59 0
x12,14_61 0
x12,14_72 0
x12,15_4 0
x12,15_11 0
x12,15_13 0
x12,15_20 0
x12,15_24 0
x12,15_28 0
x12,15_33 0
x12,15_35 0
x12,15_37 0
x12,15_39 0
x12,15_48 0
x12,15_59 0
x12,15_61 0
x12,15_72 0
x13,14_4 0
x13,14_11 0
x13,14_13 0
x13,14_20 0
x13,14_24 0
x13,14_28 0
x13,14_33 0
x13,14_35 0
x13,14_37 0
x13,14_39 0
x13,14_48 0
x13,14_59 0
x13,14_61 0
x13,14_72 0
x13,15_4 0
x13,15_11 0
x13,15_13 0
x13,15_20 0
x13,15_24 0
x13,15_28 0
x13,15_33 0
x13,15_35 0
x13,15_37 0
x13,15_39 0
x13,15_48 0
x13,15_59 0
x13,15_61 0
x13,15_72 0
x14,15_4 0
x14,15_11 0
x14,15_13 0
x14,15_20 0
x14,15_24 0
x14,15_28 0
x14,15_33 0
x14,15_35 0
x14,15_37 0
x14,15_39 0
x14,15_48 0
x14,15_59 0
x14,15_61 0
x14,15_72 0
z0 1
z1 1
z2 1
z3 1
z4 1
z5 1
z6 0
z7 0
z8 0
z9 0
z10 0
z11 0
z12 0
z13 0
z14 0
z15 0
p0 15
p1 26
p2 50
p3 54
p4 74
p5 87
p6 97
p7 98
p8 99
p9 100
p10 101
p11 102
p12 103
p13 104
p14 105
p15 106
